p tw 33 193
0 1
0 2
0 5
0 15
0 16
0 14
0 17
0 26
0 18
0 30
0 19
0 23
0 25
0 3
0 28
1 2
1 5
1 13
1 28
1 15
1 19
1 27
1 7
1 8
2 3
2 4
2 5
2 6
2 7
2 8
2 21
2 22
2 23
2 11
2 13
2 26
2 9
2 24
2 17
2 28
2 14
3 4
3 5
3 18
3 19
3 20
3 11
3 17
3 16
3 26
3 27
3 28
4 5
4 14
4 21
4 6
4 12
4 17
4 15
4 18
4 26
4 27
5 15
5 16
5 14
5 21
5 23
5 13
5 28
5 12
5 24
6 7
6 8
6 9
6 11
6 15
6 12
6 17
6 31
6 32
6 21
6 18
7 8
7 19
7 14
7 24
7 27
8 19
9 10
9 11
9 15
9 24
9 25
9 26
9 23
9 18
9 19
10 11
10 12
10 13
10 14
10 22
10 24
10 19
10 27
10 32
11 17
11 20
11 15
11 13
11 26
11 21
11 31
12 13
12 14
12 17
12 31
12 32
12 21
12 24
13 14
13 26
13 28
13 24
13 30
14 16
14 17
14 21
14 22
14 24
14 15
14 23
14 27
14 29
14 31
15 16
15 19
15 29
15 27
15 23
15 18
15 31
15 25
15 26
16 17
16 26
16 27
16 25
16 31
17 20
17 21
17 26
17 29
17 28
18 19
18 20
18 26
18 30
18 27
19 20
19 29
19 23
19 25
19 27
19 32
19 24
19 26
20 24
20 26
21 22
21 23
21 24
21 26
21 29
21 31
22 23
22 24
23 26
23 24
23 25
23 27
24 25
24 26
24 30
24 27
25 26
25 31
26 27
26 30
26 29
27 32
29 31
31 32
